1010000000010000000111011101011011110001110000000010000001011010011011100000100000110110111100001010001000000000000000000011111000001110000011100000001000000000111111001000100010110001010110110000001100010101011110111001011000000011000101011011101111010110101100111110111010110000001101010000000000010110010101111101011000000000001001010010111100001011111101110010100010010100010001010011001011000100011110011111100011010010010000110101011110100111001011011011010100101100101100001010011100101110100001000011110111100110110001111000001001111100111011101001110110001010000111001000110000000010101101111001010001000110011000000101101000111101101100110110111100111011111011000100101110110111011000111001101011001110111000110011100101001111101100011010010001110111100100110010001111000110001010110000010000110111011111000011110110110100000111110101101010011010110111010000110001010010011110111101100100110110101010011011011101001001110000000101011111001100111101110010011000010001101101100011011100000010001001110111111001111100